; PUSH cw_3 DUP1 SWAP2 PUSH cw_3 SWAP1 => PUSH cw_3 PUSH cw_3 DUP1 SWAP3
(set-option :produce-proofs true)
; 
(set-info :status unknown)
(declare-fun storage_t ((_ BitVec 256) (_ BitVec 256) Int (_ BitVec 256)) (_ BitVec 256))
(declare-fun w_3 () (_ BitVec 256))
(declare-fun storage_s ((_ BitVec 256) (_ BitVec 256) Int (_ BitVec 256)) (_ BitVec 256))
(declare-fun exc_halt_t (Int) Bool)
(declare-fun exc_halt_s (Int) Bool)
(declare-fun stack_t ((_ BitVec 256) (_ BitVec 256) Int (_ BitVec 6)) (_ BitVec 256))
(declare-fun stack_s ((_ BitVec 256) (_ BitVec 256) Int (_ BitVec 6)) (_ BitVec 256))
(declare-fun sc_t (Int) (_ BitVec 6))
(declare-fun sc_s (Int) (_ BitVec 6))
(declare-fun used_gas_t ((_ BitVec 256) (_ BitVec 256) Int) Int)
(declare-fun used_gas_s ((_ BitVec 256) (_ BitVec 256) Int) Int)
(assert
 (exists ((x_0 (_ BitVec 256)) )(let (($x5558 (forall ((w (_ BitVec 256)) )(let ((?x5555 (storage_t x_0 w_3 4 w)))
 (let ((?x5556 (storage_s x_0 w_3 5 w)))
 (= ?x5556 ?x5555))))
 ))
 (let (($x3900 (exc_halt_t 4)))
 (let (($x3979 (exc_halt_s 5)))
 (let (($x422 (= $x3979 $x3900)))
 (let (($x5975 (forall ((n (_ BitVec 6)) )(let ((?x5560 (stack_t x_0 w_3 4 n)))
 (let ((?x5561 (stack_s x_0 w_3 5 n)))
 (let (($x5562 (= ?x5561 ?x5560)))
 (let ((?x3920 (sc_t 4)))
 (let (($x53 (bvsle ?x3920 n)))
 (or $x53 $x5562)))))))
 ))
 (let ((?x3920 (sc_t 4)))
 (let ((?x805 (sc_s 5)))
 (let (($x1390 (= ?x805 ?x3920)))
 (let (($x5976 (not (and $x1390 $x5975 $x422 $x5558))))
 (let ((?x5568 (used_gas_t x_0 w_3 0)))
 (let ((?x5569 (used_gas_s x_0 w_3 0)))
 (let (($x5570 (= ?x5569 ?x5568)))
 (let (($x5575 (forall ((w (_ BitVec 256)) )(let ((?x5572 (storage_t x_0 w_3 0 w)))
 (let ((?x5573 (storage_s x_0 w_3 0 w)))
 (= ?x5573 ?x5572))))
 ))
 (let (($x56 (exc_halt_t 0)))
 (let (($x57 (exc_halt_s 0)))
 (let (($x58 (= $x57 $x56)))
 (let (($x5973 (forall ((n (_ BitVec 6)) )(let ((?x5577 (stack_t x_0 w_3 0 n)))
 (let ((?x5578 (stack_s x_0 w_3 0 n)))
 (let (($x5579 (= ?x5578 ?x5577)))
 (let ((?x63 (sc_t 0)))
 (let (($x3470 (bvsle ?x63 n)))
 (or $x3470 $x5579)))))))
 ))
 (let ((?x63 (sc_t 0)))
 (let ((?x72 (sc_s 0)))
 (let (($x73 (= ?x72 ?x63)))
 (let (($x5970 (= $x3900 (or (exc_halt_t 3) (not (bvsle (_ bv0 6) (bvadd (_ bv60 6) (sc_t 3))))))))
 (let (($x5966 (forall ((w (_ BitVec 256)) )(let ((?x5585 (storage_t x_0 w_3 3 w)))
 (let ((?x5555 (storage_t x_0 w_3 4 w)))
 (= ?x5555 ?x5585))))
 ))
 (let (($x5965 (forall ((n (_ BitVec 6)) )(let ((?x2012 (sc_t 3)))
 (let ((?x3241 (bvadd (_ bv60 6) ?x2012)))
 (let (($x5961 (bvsle ?x3241 n)))
 (or $x5961 (= (stack_t x_0 w_3 4 n) (stack_t x_0 w_3 3 n)))))))
 ))
 (let ((?x2012 (sc_t 3)))
 (let (($x2799 (= ?x3920 ?x2012)))
 (let (($x5960 (= (used_gas_t x_0 w_3 4) (+ 3 (used_gas_t x_0 w_3 3)))))
 (let (($x5957 (= (stack_t x_0 w_3 4 (bvadd (_ bv62 6) ?x3920)) (stack_t x_0 w_3 3 (bvadd (_ bv62 6) ?x2012)))))
 (let (($x5952 (= (stack_t x_0 w_3 4 (bvadd (_ bv61 6) ?x3920)) (stack_t x_0 w_3 3 (bvadd (_ bv61 6) ?x2012)))))
 (let ((?x3250 (bvadd (_ bv63 6) ?x2012)))
 (let ((?x5925 (stack_t x_0 w_3 3 ?x3250)))
 (let (($x5947 (= (stack_t x_0 w_3 4 (bvadd (_ bv60 6) ?x3920)) ?x5925)))
 (let (($x5944 (= (stack_t x_0 w_3 4 (bvadd (_ bv63 6) ?x3920)) (stack_t x_0 w_3 3 (bvadd (_ bv60 6) ?x2012)))))
 (let (($x3232 (not (= ((_ extract 6 6) (bvadd (_ bv1 7) (concat (_ bv0 1) (sc_t 2)))) (_ bv0 1)))))
 (let (($x2189 (not (bvsle (_ bv0 6) (bvadd (_ bv63 6) (sc_t 2))))))
 (let (($x903 (exc_halt_t 2)))
 (let (($x4125 (exc_halt_t 3)))
 (let (($x5938 (= $x4125 (or $x903 $x2189 $x3232))))
 (let (($x5935 (forall ((w (_ BitVec 256)) )(let ((?x5618 (storage_t x_0 w_3 2 w)))
 (let ((?x5585 (storage_t x_0 w_3 3 w)))
 (= ?x5585 ?x5618))))
 ))
 (let (($x5934 (forall ((n (_ BitVec 6)) )(let ((?x4056 (sc_t 2)))
 (let ((?x2700 (bvadd (_ bv63 6) ?x4056)))
 (let (($x2215 (bvsle ?x2700 n)))
 (or $x2215 (= (stack_t x_0 w_3 3 n) (stack_t x_0 w_3 2 n)))))))
 ))
 (let (($x2730 (= ?x2012 (bvadd (_ bv1 6) (sc_t 2)))))
 (let ((?x5597 (used_gas_t x_0 w_3 3)))
 (let (($x5930 (= ?x5597 (+ 3 (used_gas_t x_0 w_3 2)))))
 (let ((?x4056 (sc_t 2)))
 (let ((?x2700 (bvadd (_ bv63 6) ?x4056)))
 (let ((?x5908 (stack_t x_0 w_3 2 ?x2700)))
 (let (($x5928 (= (stack_t x_0 w_3 3 ?x2700) ?x5908)))
 (let (($x5926 (= ?x5925 ?x5908)))
 (let (($x3312 (not (= ((_ extract 6 6) (bvadd (_ bv1 7) (concat (_ bv0 1) (sc_t 1)))) (_ bv0 1)))))
 (let (($x1920 (exc_halt_t 1)))
 (let (($x3333 (= $x903 (or $x1920 $x3312))))
 (let (($x5920 (forall ((w (_ BitVec 256)) )(let ((?x5642 (storage_t x_0 w_3 1 w)))
 (let ((?x5618 (storage_t x_0 w_3 2 w)))
 (= ?x5618 ?x5642))))
 ))
 (let (($x7708 (forall ((n (_ BitVec 6)) )(let ((?x5646 (stack_t x_0 w_3 1 n)))
 (let ((?x5622 (stack_t x_0 w_3 2 n)))
 (let (($x5917 (= ?x5622 ?x5646)))
 (let ((?x4023 (sc_t 1)))
 (let (($x3393 (bvsle ?x4023 n)))
 (or $x3393 $x5917)))))))
 ))
 (let (($x3391 (= ?x4056 (bvadd (_ bv1 6) (sc_t 1)))))
 (let ((?x5630 (used_gas_t x_0 w_3 2)))
 (let (($x5915 (= ?x5630 (+ 3 (used_gas_t x_0 w_3 1)))))
 (let (($x3419 (= $x1920 (or $x56 (not (= ((_ extract 6 6) (bvadd (_ bv1 7) (concat (_ bv0 1) ?x63))) (_ bv0 1)))))))
 (let (($x5906 (forall ((w (_ BitVec 256)) )(let ((?x5572 (storage_t x_0 w_3 0 w)))
 (let ((?x5642 (storage_t x_0 w_3 1 w)))
 (= ?x5642 ?x5572))))
 ))
 (let (($x5905 (forall ((n (_ BitVec 6)) )(let ((?x63 (sc_t 0)))
 (let (($x3470 (bvsle ?x63 n)))
 (or $x3470 (= (stack_t x_0 w_3 1 n) (stack_t x_0 w_3 0 n))))))
 ))
 (let ((?x4023 (sc_t 1)))
 (let (($x3469 (= ?x4023 (bvadd (_ bv1 6) ?x63))))
 (let ((?x5654 (used_gas_t x_0 w_3 1)))
 (let (($x5901 (= ?x5654 (+ 3 ?x5568))))
 (let (($x5899 (= (stack_t x_0 w_3 1 ?x63) w_3)))
 (let (($x1660 (= $x3979 (or (exc_halt_s 4) (not (bvsle (_ bv0 6) (bvadd (_ bv62 6) (sc_s 4))))))))
 (let (($x5897 (forall ((w (_ BitVec 256)) )(let ((?x5683 (storage_s x_0 w_3 4 w)))
 (let ((?x5556 (storage_s x_0 w_3 5 w)))
 (= ?x5556 ?x5683))))
 ))
 (let (($x5896 (forall ((n (_ BitVec 6)) )(let ((?x4305 (sc_s 4)))
 (let ((?x3350 (bvadd (_ bv62 6) ?x4305)))
 (let (($x1656 (bvsle ?x3350 n)))
 (or $x1656 (= (stack_s x_0 w_3 5 n) (stack_s x_0 w_3 4 n)))))))
 ))
 (let ((?x4305 (sc_s 4)))
 (let (($x4971 (= ?x805 ?x4305)))
 (let (($x5892 (= (used_gas_s x_0 w_3 5) (+ 3 (used_gas_s x_0 w_3 4)))))
 (let (($x5889 (= (stack_s x_0 w_3 5 (bvadd (_ bv62 6) ?x805)) (stack_s x_0 w_3 4 (bvadd (_ bv63 6) ?x4305)))))
 (let (($x5884 (= (stack_s x_0 w_3 5 (bvadd (_ bv63 6) ?x805)) (stack_s x_0 w_3 4 (bvadd (_ bv62 6) ?x4305)))))
 (let (($x3650 (not (= ((_ extract 6 6) (bvadd (_ bv1 7) (concat (_ bv0 1) (sc_s 3)))) (_ bv0 1)))))
 (let (($x292 (exc_halt_s 3)))
 (let (($x64 (exc_halt_s 4)))
 (let (($x5879 (= $x64 (or $x292 $x3650))))
 (let (($x5877 (forall ((w (_ BitVec 256)) )(let ((?x5709 (storage_s x_0 w_3 3 w)))
 (let ((?x5683 (storage_s x_0 w_3 4 w)))
 (= ?x5683 ?x5709))))
 ))
 (let (($x5876 (forall ((n (_ BitVec 6)) )(let ((?x275 (sc_s 3)))
 (let (($x5872 (bvsle ?x275 n)))
 (or $x5872 (= (stack_s x_0 w_3 4 n) (stack_s x_0 w_3 3 n))))))
 ))
 (let (($x3649 (= ?x4305 (bvadd (_ bv1 6) (sc_s 3)))))
 (let ((?x5695 (used_gas_s x_0 w_3 4)))
 (let (($x5871 (= ?x5695 (+ 3 (used_gas_s x_0 w_3 3)))))
 (let (($x5869 (= (stack_s x_0 w_3 4 (sc_s 3)) w_3)))
 (let (($x2873 (= $x292 (or (exc_halt_s 2) (not (bvsle (_ bv0 6) (bvadd (_ bv61 6) (sc_s 2))))))))
 (let (($x5867 (forall ((w (_ BitVec 256)) )(let ((?x5729 (storage_s x_0 w_3 2 w)))
 (let ((?x5709 (storage_s x_0 w_3 3 w)))
 (= ?x5709 ?x5729))))
 ))
 (let (($x5866 (forall ((n (_ BitVec 6)) )(let ((?x218 (sc_s 2)))
 (let ((?x2457 (bvadd (_ bv61 6) ?x218)))
 (let (($x2129 (bvsle ?x2457 n)))
 (or $x2129 (= (stack_s x_0 w_3 3 n) (stack_s x_0 w_3 2 n)))))))
 ))
 (let ((?x218 (sc_s 2)))
 (let ((?x275 (sc_s 3)))
 (let (($x2128 (= ?x275 ?x218)))
 (let ((?x5721 (used_gas_s x_0 w_3 3)))
 (let (($x5862 (= ?x5721 (+ 3 (used_gas_s x_0 w_3 2)))))
 (let (($x5860 (= (stack_s x_0 w_3 3 (bvadd (_ bv62 6) ?x275)) (stack_s x_0 w_3 2 (bvadd (_ bv62 6) ?x218)))))
 (let ((?x3560 (bvadd (_ bv63 6) ?x218)))
 (let ((?x5832 (stack_s x_0 w_3 2 ?x3560)))
 (let (($x5854 (= (stack_s x_0 w_3 3 (bvadd (_ bv61 6) ?x275)) ?x5832)))
 (let (($x5851 (= (stack_s x_0 w_3 3 (bvadd (_ bv63 6) ?x275)) (stack_s x_0 w_3 2 (bvadd (_ bv61 6) ?x218)))))
 (let (($x4932 (not (= ((_ extract 6 6) (bvadd (_ bv1 7) (concat (_ bv0 1) (sc_s 1)))) (_ bv0 1)))))
 (let (($x3075 (not (bvsle (_ bv0 6) (bvadd (_ bv63 6) (sc_s 1))))))
 (let (($x189 (exc_halt_s 1)))
 (let (($x247 (exc_halt_s 2)))
 (let (($x4935 (= $x247 (or $x189 $x3075 $x4932))))
 (let (($x5844 (forall ((w (_ BitVec 256)) )(let ((?x5758 (storage_s x_0 w_3 1 w)))
 (let ((?x5729 (storage_s x_0 w_3 2 w)))
 (= ?x5729 ?x5758))))
 ))
 (let (($x5843 (forall ((n (_ BitVec 6)) )(let ((?x154 (sc_s 1)))
 (let ((?x3496 (bvadd (_ bv63 6) ?x154)))
 (let (($x3072 (bvsle ?x3496 n)))
 (or $x3072 (= (stack_s x_0 w_3 2 n) (stack_s x_0 w_3 1 n)))))))
 ))
 (let (($x4922 (= ?x218 (bvadd (_ bv1 6) (sc_s 1)))))
 (let ((?x5741 (used_gas_s x_0 w_3 2)))
 (let (($x5839 (= ?x5741 (+ 3 (used_gas_s x_0 w_3 1)))))
 (let ((?x154 (sc_s 1)))
 (let ((?x3496 (bvadd (_ bv63 6) ?x154)))
 (let ((?x5834 (stack_s x_0 w_3 1 ?x3496)))
 (let (($x5837 (= (stack_s x_0 w_3 2 ?x3496) ?x5834)))
 (let (($x5835 (= ?x5832 ?x5834)))
 (let (($x447 (= $x189 (or $x57 (not (= ((_ extract 6 6) (bvadd (_ bv1 7) (concat (_ bv0 1) ?x72))) (_ bv0 1)))))))
 (let (($x5828 (forall ((w (_ BitVec 256)) )(let ((?x5573 (storage_s x_0 w_3 0 w)))
 (let ((?x5758 (storage_s x_0 w_3 1 w)))
 (= ?x5758 ?x5573))))
 ))
 (let (($x5827 (forall ((n (_ BitVec 6)) )(let ((?x72 (sc_s 0)))
 (let (($x440 (bvsle ?x72 n)))
 (or $x440 (= (stack_s x_0 w_3 1 n) (stack_s x_0 w_3 0 n))))))
 ))
 (let (($x2381 (= ?x154 (bvadd (_ bv1 6) ?x72))))
 (let ((?x5770 (used_gas_s x_0 w_3 1)))
 (let (($x5823 (= ?x5770 (+ 3 ?x5569))))
 (let (($x5821 (= (stack_s x_0 w_3 1 ?x72) w_3)))
 (let (($x5800 (forall ((w (_ BitVec 256)) )(let ((?x5573 (storage_s x_0 w_3 0 w)))
 (= ?x5573 (_ bv0 256))))
 ))
 (let (($x5801 (= ?x5569 0)))
 (let (($x3503 (not $x57)))
 (let (($x5805 (= (stack_s x_0 w_3 0 (_ bv0 6)) x_0)))
 (let (($x5194 (= ?x72 (_ bv1 6))))
 (and $x5194 $x5805 $x3503 $x5801 $x5800 $x5821 $x5823 $x2381 $x5827 $x5828 $x447 $x5835 $x5837 $x5839 $x4922 $x5843 $x5844 $x4935 $x5851 $x5854 $x5860 $x5862 $x2128 $x5866 $x5867 $x2873 $x5869 $x5871 $x3649 $x5876 $x5877 $x5879 $x5884 $x5889 $x5892 $x4971 $x5896 $x5897 $x1660 $x5899 $x5901 $x3469 $x5905 $x5906 $x3419 (= (stack_t x_0 w_3 2 ?x4023) w_3) $x5915 $x3391 $x7708 $x5920 $x3333 $x5926 $x5928 $x5930 $x2730 $x5934 $x5935 $x5938 $x5944 $x5947 $x5952 $x5957 $x5960 $x2799 $x5965 $x5966 $x5970 $x73 $x5973 $x58 $x5575 $x5570 $x5976)))))))))))))))))))))))))))))))))))))))))))))))))))))))))))))))))))))))))))))))))))))))))))))))))))))))))))))))))))))))))))
 )
(check-sat)
(get-proof)
